LCHARG=.FALSE.
LWAVE=.FALSE.
PREC=normal
ENCUT=450
ISPIN=1
IBRION=-1
ISIF=0
NFREE=2
EDIFF=1E-4
EDIFFG=-0.05
ALGO=fast
LREAL=Auto
LPLANE=.TRUE.
NELMIN=3
NELM=60
NSW=0
ISMEAR=1
SIGMA=0.2
NCORE=4
