Si
5.4
0.0 0.5 0.5
0.5 0.0 0.5
0.5 0.5 0.0
Si
2
Direct
0.875 0.875 0.875
0.125 0.125 0.125